(set-info :origin "NTS benchmark converted to SMT-LIB2 using Eldarica (http://lara.epfl.ch/w/eldarica)")
(set-logic HORN)
(declare-fun p (Int Int Int Int Int Int Int Int Int Int Int Int Int Int Int Int Int) Bool)

(assert
 (forall
  ((A Int)(B Int)(C Int)(D Int)(E Int)(F Int)(G Int)(H Int)(I Int)(J Int)(K Int)(L Int)(M Int)(N Int)(O Int)(P Int)(Q Int)(R Int)(S Int)(T Int)(U Int)(V Int)(W Int)(X Int)(Y Int)(Z Int)(A1 Int)(B1 Int)(C1 Int)(D1 Int)(E1 Int)(F1 Int))
  (=>
   (or 
    (and 
     (= A 2) 
     (= R B)
     (= S C)
     (= T D)
     (= U E)
     (= V F)
     (= W G)
     (= X H)
     (= Y I)
     (= Z J)
     (= A1 K)
     (= B1 L)
     (= C1 M)
     (= D1 N)
     (= R O)
     (= E1 P)
     (= F1 Q)
     (>= (+ (- B1 R) 0) 0)
     (= (* (- 1) F1) 0)
     (= (* (- 1) E1) 0))

    (and
     (= A 2) 
     (= R B)
     (= S C)
     (= T D)
     (= U E)
     (= V F)
     (= W G)
     (= X H)
     (= Y I)
     (= Z J)
     (= A1 K)
     (= B1 L)
     (= C1 M)
     (= D1 N)
     (= R O)
     (= E1 P)
     (= F1 Q)
     (>= (+ (+ (- R B1) (- 1)) 0) 0)
     (= (* (- 1) F1) 0)
     (= (* (- 1) E1) (- 1))))

   (p A B C D E F G H I J K L M N O P Q))))

(assert
 (forall
  ((A Int)(B Int)(C Int)(D Int)(E Int)(F Int)(G Int)(H Int)(I Int)(J Int)(K Int)(L Int)(M Int)(N Int)(O Int)(P Int)(Q Int)(R Int)(S Int)(T Int)(U Int)(V Int)(W Int)(X Int)(Y Int)(Z Int)(A1 Int)(B1 Int)(C1 Int)(D1 Int)(E1 Int)(F1 Int)(G1 Int)(H1 Int)(I1 Int)(J1 Int)(K1 Int)(L1 Int)(M1 Int)(N1 Int)(O1 Int)(P1 Int)(Q1 Int)(R1 Int)(S1 Int)(T1 Int)(U1 Int)(V1 Int)(W1 Int)(X1 Int)(Y1 Int)(Z1 Int)(A2 Int)(B2 Int))
  (=>
   (and
    (= A 1)
    (= R 2)
    (= S B)
    (= T C)
    (= U D)
    (= V E)
    (= W F)
    (= X G)
    (= Y H)
    (= Z I)
    (= A1 J)
    (= B1 K)
    (= C1 L)
    (= D1 M)
    (= E1 N)
    (= F1 O)
    (= G1 P)
    (= H1 Q)
    (= S I1) 
    (= T J1)
    (= U K1)
    (= V L1)
    (= W M1)
    (= X N1)
    (= Y O1)
    (= Z P1)
    (= Q1 R1)
    (= S1 T1)
    (= C1 U1)
    (= D1 V1)
    (= W1 X1)
    (= F1 Y1)
    (= G1 Z1)
    (= A2 B2)
    (>= (+ (- D1 C1) 0) 0)
    (= (* (- 1) H1) 0)
    (p R I1 J1 K1 L1 M1 N1 O1 P1 R1 T1 U1 V1 X1 Y1 Z1 B2)) 
   
   (p A B C D E F G H I J K L M N O P Q))))

(assert
 (not
  (exists
   ((A Int)(B Int)(C Int)(D Int)(E Int)(F Int)(G Int)(H Int)(I Int)(J Int)(K Int)(L Int)(M Int)(N Int)(O Int)(P Int)(Q Int)(R Int)(S Int)(T Int)(U Int)(V Int)(W Int)(X Int)(Y Int)(Z Int)(A1 Int)(B1 Int)(C1 Int)(D1 Int)(E1 Int)(F1 Int)(G1 Int))
   (and
    (= A 1)
    (= B C)
    (= D E)
    (= F G)
    (= H I)
    (= J K)
    (= L M)
    (= N O)
    (= P Q)
    (= R S)
    (= T U)
    (= V W)
    (= X Y)
    (= Z A1)
    (= B1 C1)
    (= D1 E1)
    (= F1 G1)
    (>= (+ (+ (- X B1) (- 1)) 0) 0)
    (= (* (- 1) F1) (- 1))
    (= (* (- 1) D1) (- 1))
    (p A C E G I K M O Q S U W Y A1 C1 E1 G1)))))

(check-sat)
